logs/miss/max/miss-07-15-2.lp
\ LP format - for model browsing. Use MPS format to capture full model detail.
Maximize
  x0,1_1 + x0,1_2 + x0,1_8 + x0,1_10 + x0,1_13 + x0,1_21 + x0,1_23 + x0,1_26
   + x0,1_27 + x0,1_37 + x0,1_40 + x0,1_50 + x0,2_1 + x0,2_2 + x0,2_8
   + x0,2_10 + x0,2_13 + x0,2_21 + x0,2_23 + x0,2_26 + x0,2_27 + x0,2_37
   + x0,2_40 + x0,2_50 + x0,3_1 + x0,3_2 + x0,3_8 + x0,3_10 + x0,3_13
   + x0,3_21 + x0,3_23 + x0,3_26 + x0,3_27 + x0,3_37 + x0,3_40 + x0,3_50
   + x0,4_1 + x0,4_2 + x0,4_8 + x0,4_10 + x0,4_13 + x0,4_21 + x0,4_23
   + x0,4_26 + x0,4_27 + x0,4_37 + x0,4_40 + x0,4_50 + x0,5_1 + x0,5_2
   + x0,5_8 + x0,5_10 + x0,5_13 + x0,5_21 + x0,5_23 + x0,5_26 + x0,5_27
   + x0,5_37 + x0,5_40 + x0,5_50 + x0,6_1 + x0,6_2 + x0,6_8 + x0,6_10
   + x0,6_13 + x0,6_21 + x0,6_23 + x0,6_26 + x0,6_27 + x0,6_37 + x0,6_40
   + x0,6_50 + x1,2_1 + x1,2_2 + x1,2_8 + x1,2_10 + x1,2_13 + x1,2_21
   + x1,2_23 + x1,2_26 + x1,2_27 + x1,2_37 + x1,2_40 + x1,2_50 + x1,3_1
   + x1,3_2 + x1,3_8 + x1,3_10 + x1,3_13 + x1,3_21 + x1,3_23 + x1,3_26
   + x1,3_27 + x1,3_37 + x1,3_40 + x1,3_50 + x1,4_1 + x1,4_2 + x1,4_8
   + x1,4_10 + x1,4_13 + x1,4_21 + x1,4_23 + x1,4_26 + x1,4_27 + x1,4_37
   + x1,4_40 + x1,4_50 + x1,5_1 + x1,5_2 + x1,5_8 + x1,5_10 + x1,5_13
   + x1,5_21 + x1,5_23 + x1,5_26 + x1,5_27 + x1,5_37 + x1,5_40 + x1,5_50
   + x1,6_1 + x1,6_2 + x1,6_8 + x1,6_10 + x1,6_13 + x1,6_21 + x1,6_23
   + x1,6_26 + x1,6_27 + x1,6_37 + x1,6_40 + x1,6_50 + x2,3_1 + x2,3_2
   + x2,3_8 + x2,3_10 + x2,3_13 + x2,3_21 + x2,3_23 + x2,3_26 + x2,3_27
   + x2,3_37 + x2,3_40 + x2,3_50 + x2,4_1 + x2,4_2 + x2,4_8 + x2,4_10
   + x2,4_13 + x2,4_21 + x2,4_23 + x2,4_26 + x2,4_27 + x2,4_37 + x2,4_40
   + x2,4_50 + x2,5_1 + x2,5_2 + x2,5_8 + x2,5_10 + x2,5_13 + x2,5_21
   + x2,5_23 + x2,5_26 + x2,5_27 + x2,5_37 + x2,5_40 + x2,5_50 + x2,6_1
   + x2,6_2 + x2,6_8 + x2,6_10 + x2,6_13 + x2,6_21 + x2,6_23 + x2,6_26
   + x2,6_27 + x2,6_37 + x2,6_40 + x2,6_50 + x3,4_1 + x3,4_2 + x3,4_8
   + x3,4_10 + x3,4_13 + x3,4_21 + x3,4_23 + x3,4_26 + x3,4_27 + x3,4_37
   + x3,4_40 + x3,4_50 + x3,5_1 + x3,5_2 + x3,5_8 + x3,5_10 + x3,5_13
   + x3,5_21 + x3,5_23 + x3,5_26 + x3,5_27 + x3,5_37 + x3,5_40 + x3,5_50
   + x3,6_1 + x3,6_2 + x3,6_8 + x3,6_10 + x3,6_13 + x3,6_21 + x3,6_23
   + x3,6_26 + x3,6_27 + x3,6_37 + x3,6_40 + x3,6_50 + x4,5_1 + x4,5_2
   + x4,5_8 + x4,5_10 + x4,5_13 + x4,5_21 + x4,5_23 + x4,5_26 + x4,5_27
   + x4,5_37 + x4,5_40 + x4,5_50 + x4,6_1 + x4,6_2 + x4,6_8 + x4,6_10
   + x4,6_13 + x4,6_21 + x4,6_23 + x4,6_26 + x4,6_27 + x4,6_37 + x4,6_40
   + x4,6_50 + x5,6_1 + x5,6_2 + x5,6_8 + x5,6_10 + x5,6_13 + x5,6_21
   + x5,6_23 + x5,6_26 + x5,6_27 + x5,6_37 + x5,6_40 + x5,6_50
Subject To
 R0: x0,1_1 + x0,2_1 + x0,3_1 + x0,4_1 + x0,5_1 + x0,6_1 + x1,2_1 + x1,3_1
   + x1,4_1 + x1,5_1 + x1,6_1 + x2,3_1 + x2,4_1 + x2,5_1 + x2,6_1 + x3,4_1
   + x3,5_1 + x3,6_1 + x4,5_1 + x4,6_1 + x5,6_1 <= 1
 R1: x0,1_2 + x0,2_2 + x0,3_2 + x0,4_2 + x0,5_2 + x0,6_2 + x1,2_2 + x1,3_2
   + x1,4_2 + x1,5_2 + x1,6_2 + x2,3_2 + x2,4_2 + x2,5_2 + x2,6_2 + x3,4_2
   + x3,5_2 + x3,6_2 + x4,5_2 + x4,6_2 + x5,6_2 <= 1
 R2: x0,1_8 + x0,2_8 + x0,3_8 + x0,4_8 + x0,5_8 + x0,6_8 + x1,2_8 + x1,3_8
   + x1,4_8 + x1,5_8 + x1,6_8 + x2,3_8 + x2,4_8 + x2,5_8 + x2,6_8 + x3,4_8
   + x3,5_8 + x3,6_8 + x4,5_8 + x4,6_8 + x5,6_8 <= 1
 R3: x0,1_10 + x0,2_10 + x0,3_10 + x0,4_10 + x0,5_10 + x0,6_10 + x1,2_10
   + x1,3_10 + x1,4_10 + x1,5_10 + x1,6_10 + x2,3_10 + x2,4_10 + x2,5_10
   + x2,6_10 + x3,4_10 + x3,5_10 + x3,6_10 + x4,5_10 + x4,6_10 + x5,6_10
   <= 1
 R4: x0,1_13 + x0,2_13 + x0,3_13 + x0,4_13 + x0,5_13 + x0,6_13 + x1,2_13
   + x1,3_13 + x1,4_13 + x1,5_13 + x1,6_13 + x2,3_13 + x2,4_13 + x2,5_13
   + x2,6_13 + x3,4_13 + x3,5_13 + x3,6_13 + x4,5_13 + x4,6_13 + x5,6_13
   <= 2
 R5: x0,1_21 + x0,2_21 + x0,3_21 + x0,4_21 + x0,5_21 + x0,6_21 + x1,2_21
   + x1,3_21 + x1,4_21 + x1,5_21 + x1,6_21 + x2,3_21 + x2,4_21 + x2,5_21
   + x2,6_21 + x3,4_21 + x3,5_21 + x3,6_21 + x4,5_21 + x4,6_21 + x5,6_21
   <= 1
 R6: x0,1_23 + x0,2_23 + x0,3_23 + x0,4_23 + x0,5_23 + x0,6_23 + x1,2_23
   + x1,3_23 + x1,4_23 + x1,5_23 + x1,6_23 + x2,3_23 + x2,4_23 + x2,5_23
   + x2,6_23 + x3,4_23 + x3,5_23 + x3,6_23 + x4,5_23 + x4,6_23 + x5,6_23
   <= 1
 R7: x0,1_26 + x0,2_26 + x0,3_26 + x0,4_26 + x0,5_26 + x0,6_26 + x1,2_26
   + x1,3_26 + x1,4_26 + x1,5_26 + x1,6_26 + x2,3_26 + x2,4_26 + x2,5_26
   + x2,6_26 + x3,4_26 + x3,5_26 + x3,6_26 + x4,5_26 + x4,6_26 + x5,6_26
   <= 1
 R8: x0,1_27 + x0,2_27 + x0,3_27 + x0,4_27 + x0,5_27 + x0,6_27 + x1,2_27
   + x1,3_27 + x1,4_27 + x1,5_27 + x1,6_27 + x2,3_27 + x2,4_27 + x2,5_27
   + x2,6_27 + x3,4_27 + x3,5_27 + x3,6_27 + x4,5_27 + x4,6_27 + x5,6_27
   <= 2
 R9: x0,1_37 + x0,2_37 + x0,3_37 + x0,4_37 + x0,5_37 + x0,6_37 + x1,2_37
   + x1,3_37 + x1,4_37 + x1,5_37 + x1,6_37 + x2,3_37 + x2,4_37 + x2,5_37
   + x2,6_37 + x3,4_37 + x3,5_37 + x3,6_37 + x4,5_37 + x4,6_37 + x5,6_37
   <= 1
 R10: x0,1_40 + x0,2_40 + x0,3_40 + x0,4_40 + x0,5_40 + x0,6_40 + x1,2_40
   + x1,3_40 + x1,4_40 + x1,5_40 + x1,6_40 + x2,3_40 + x2,4_40 + x2,5_40
   + x2,6_40 + x3,4_40 + x3,5_40 + x3,6_40 + x4,5_40 + x4,6_40 + x5,6_40
   <= 1
 R11: x0,1_50 + x0,2_50 + x0,3_50 + x0,4_50 + x0,5_50 + x0,6_50 + x1,2_50
   + x1,3_50 + x1,4_50 + x1,5_50 + x1,6_50 + x2,3_50 + x2,4_50 + x2,5_50
   + x2,6_50 + x3,4_50 + x3,5_50 + x3,6_50 + x4,5_50 + x4,6_50 + x5,6_50
   <= 1
 R12: x0,1_1 + x0,1_2 + x0,1_8 + x0,1_10 + x0,1_13 + x0,1_21 + x0,1_23
   + x0,1_26 + x0,1_27 + x0,1_37 + x0,1_40 + x0,1_50 <= 1
 R13: x0,2_1 + x0,2_2 + x0,2_8 + x0,2_10 + x0,2_13 + x0,2_21 + x0,2_23
   + x0,2_26 + x0,2_27 + x0,2_37 + x0,2_40 + x0,2_50 <= 1
 R14: x0,3_1 + x0,3_2 + x0,3_8 + x0,3_10 + x0,3_13 + x0,3_21 + x0,3_23
   + x0,3_26 + x0,3_27 + x0,3_37 + x0,3_40 + x0,3_50 <= 1
 R15: x0,4_1 + x0,4_2 + x0,4_8 + x0,4_10 + x0,4_13 + x0,4_21 + x0,4_23
   + x0,4_26 + x0,4_27 + x0,4_37 + x0,4_40 + x0,4_50 <= 1
 R16: x0,5_1 + x0,5_2 + x0,5_8 + x0,5_10 + x0,5_13 + x0,5_21 + x0,5_23
   + x0,5_26 + x0,5_27 + x0,5_37 + x0,5_40 + x0,5_50 <= 1
 R17: x0,6_1 + x0,6_2 + x0,6_8 + x0,6_10 + x0,6_13 + x0,6_21 + x0,6_23
   + x0,6_26 + x0,6_27 + x0,6_37 + x0,6_40 + x0,6_50 <= 1
 R18: x1,2_1 + x1,2_2 + x1,2_8 + x1,2_10 + x1,2_13 + x1,2_21 + x1,2_23
   + x1,2_26 + x1,2_27 + x1,2_37 + x1,2_40 + x1,2_50 <= 1
 R19: x1,3_1 + x1,3_2 + x1,3_8 + x1,3_10 + x1,3_13 + x1,3_21 + x1,3_23
   + x1,3_26 + x1,3_27 + x1,3_37 + x1,3_40 + x1,3_50 <= 1
 R20: x1,4_1 + x1,4_2 + x1,4_8 + x1,4_10 + x1,4_13 + x1,4_21 + x1,4_23
   + x1,4_26 + x1,4_27 + x1,4_37 + x1,4_40 + x1,4_50 <= 1
 R21: x1,5_1 + x1,5_2 + x1,5_8 + x1,5_10 + x1,5_13 + x1,5_21 + x1,5_23
   + x1,5_26 + x1,5_27 + x1,5_37 + x1,5_40 + x1,5_50 <= 1
 R22: x1,6_1 + x1,6_2 + x1,6_8 + x1,6_10 + x1,6_13 + x1,6_21 + x1,6_23
   + x1,6_26 + x1,6_27 + x1,6_37 + x1,6_40 + x1,6_50 <= 1
 R23: x2,3_1 + x2,3_2 + x2,3_8 + x2,3_10 + x2,3_13 + x2,3_21 + x2,3_23
   + x2,3_26 + x2,3_27 + x2,3_37 + x2,3_40 + x2,3_50 <= 1
 R24: x2,4_1 + x2,4_2 + x2,4_8 + x2,4_10 + x2,4_13 + x2,4_21 + x2,4_23
   + x2,4_26 + x2,4_27 + x2,4_37 + x2,4_40 + x2,4_50 <= 1
 R25: x2,5_1 + x2,5_2 + x2,5_8 + x2,5_10 + x2,5_13 + x2,5_21 + x2,5_23
   + x2,5_26 + x2,5_27 + x2,5_37 + x2,5_40 + x2,5_50 <= 1
 R26: x2,6_1 + x2,6_2 + x2,6_8 + x2,6_10 + x2,6_13 + x2,6_21 + x2,6_23
   + x2,6_26 + x2,6_27 + x2,6_37 + x2,6_40 + x2,6_50 <= 1
 R27: x3,4_1 + x3,4_2 + x3,4_8 + x3,4_10 + x3,4_13 + x3,4_21 + x3,4_23
   + x3,4_26 + x3,4_27 + x3,4_37 + x3,4_40 + x3,4_50 <= 1
 R28: x3,5_1 + x3,5_2 + x3,5_8 + x3,5_10 + x3,5_13 + x3,5_21 + x3,5_23
   + x3,5_26 + x3,5_27 + x3,5_37 + x3,5_40 + x3,5_50 <= 1
 R29: x3,6_1 + x3,6_2 + x3,6_8 + x3,6_10 + x3,6_13 + x3,6_21 + x3,6_23
   + x3,6_26 + x3,6_27 + x3,6_37 + x3,6_40 + x3,6_50 <= 1
 R30: x4,5_1 + x4,5_2 + x4,5_8 + x4,5_10 + x4,5_13 + x4,5_21 + x4,5_23
   + x4,5_26 + x4,5_27 + x4,5_37 + x4,5_40 + x4,5_50 <= 1
 R31: x4,6_1 + x4,6_2 + x4,6_8 + x4,6_10 + x4,6_13 + x4,6_21 + x4,6_23
   + x4,6_26 + x4,6_27 + x4,6_37 + x4,6_40 + x4,6_50 <= 1
 R32: x5,6_1 + x5,6_2 + x5,6_8 + x5,6_10 + x5,6_13 + x5,6_21 + x5,6_23
   + x5,6_26 + x5,6_27 + x5,6_37 + x5,6_40 + x5,6_50 <= 1
 R33: p0 - p1 <= -1
 R34: - x0,1_1 - p0 + p1 >= 0
 R35: 298 x0,1_1 - p0 + p1 <= 299
 R36: - 2 x0,1_2 - p0 + p1 >= 0
 R37: 298 x0,1_2 - p0 + p1 <= 300
 R38: - 8 x0,1_8 - p0 + p1 >= 0
 R39: 298 x0,1_8 - p0 + p1 <= 306
 R40: - 10 x0,1_10 - p0 + p1 >= 0
 R41: 298 x0,1_10 - p0 + p1 <= 308
 R42: - 13 x0,1_13 - p0 + p1 >= 0
 R43: 298 x0,1_13 - p0 + p1 <= 311
 R44: - 21 x0,1_21 - p0 + p1 >= 0
 R45: 298 x0,1_21 - p0 + p1 <= 319
 R46: - 23 x0,1_23 - p0 + p1 >= 0
 R47: 298 x0,1_23 - p0 + p1 <= 321
 R48: - 26 x0,1_26 - p0 + p1 >= 0
 R49: 298 x0,1_26 - p0 + p1 <= 324
 R50: - 27 x0,1_27 - p0 + p1 >= 0
 R51: 298 x0,1_27 - p0 + p1 <= 325
 R52: - 37 x0,1_37 - p0 + p1 >= 0
 R53: 298 x0,1_37 - p0 + p1 <= 335
 R54: - 40 x0,1_40 - p0 + p1 >= 0
 R55: 298 x0,1_40 - p0 + p1 <= 338
 R56: - 50 x0,1_50 - p0 + p1 >= 0
 R57: 298 x0,1_50 - p0 + p1 <= 348
 R58: p0 - p2 <= -1
 R59: - x0,2_1 - p0 + p2 >= 0
 R60: 298 x0,2_1 - p0 + p2 <= 299
 R61: - 2 x0,2_2 - p0 + p2 >= 0
 R62: 298 x0,2_2 - p0 + p2 <= 300
 R63: - 8 x0,2_8 - p0 + p2 >= 0
 R64: 298 x0,2_8 - p0 + p2 <= 306
 R65: - 10 x0,2_10 - p0 + p2 >= 0
 R66: 298 x0,2_10 - p0 + p2 <= 308
 R67: - 13 x0,2_13 - p0 + p2 >= 0
 R68: 298 x0,2_13 - p0 + p2 <= 311
 R69: - 21 x0,2_21 - p0 + p2 >= 0
 R70: 298 x0,2_21 - p0 + p2 <= 319
 R71: - 23 x0,2_23 - p0 + p2 >= 0
 R72: 298 x0,2_23 - p0 + p2 <= 321
 R73: - 26 x0,2_26 - p0 + p2 >= 0
 R74: 298 x0,2_26 - p0 + p2 <= 324
 R75: - 27 x0,2_27 - p0 + p2 >= 0
 R76: 298 x0,2_27 - p0 + p2 <= 325
 R77: - 37 x0,2_37 - p0 + p2 >= 0
 R78: 298 x0,2_37 - p0 + p2 <= 335
 R79: - 40 x0,2_40 - p0 + p2 >= 0
 R80: 298 x0,2_40 - p0 + p2 <= 338
 R81: - 50 x0,2_50 - p0 + p2 >= 0
 R82: 298 x0,2_50 - p0 + p2 <= 348
 R83: p0 - p3 <= -1
 R84: - x0,3_1 - p0 + p3 >= 0
 R85: 298 x0,3_1 - p0 + p3 <= 299
 R86: - 2 x0,3_2 - p0 + p3 >= 0
 R87: 298 x0,3_2 - p0 + p3 <= 300
 R88: - 8 x0,3_8 - p0 + p3 >= 0
 R89: 298 x0,3_8 - p0 + p3 <= 306
 R90: - 10 x0,3_10 - p0 + p3 >= 0
 R91: 298 x0,3_10 - p0 + p3 <= 308
 R92: - 13 x0,3_13 - p0 + p3 >= 0
 R93: 298 x0,3_13 - p0 + p3 <= 311
 R94: - 21 x0,3_21 - p0 + p3 >= 0
 R95: 298 x0,3_21 - p0 + p3 <= 319
 R96: - 23 x0,3_23 - p0 + p3 >= 0
 R97: 298 x0,3_23 - p0 + p3 <= 321
 R98: - 26 x0,3_26 - p0 + p3 >= 0
 R99: 298 x0,3_26 - p0 + p3 <= 324
 R100: - 27 x0,3_27 - p0 + p3 >= 0
 R101: 298 x0,3_27 - p0 + p3 <= 325
 R102: - 37 x0,3_37 - p0 + p3 >= 0
 R103: 298 x0,3_37 - p0 + p3 <= 335
 R104: - 40 x0,3_40 - p0 + p3 >= 0
 R105: 298 x0,3_40 - p0 + p3 <= 338
 R106: - 50 x0,3_50 - p0 + p3 >= 0
 R107: 298 x0,3_50 - p0 + p3 <= 348
 R108: p0 - p4 <= -1
 R109: - x0,4_1 - p0 + p4 >= 0
 R110: 298 x0,4_1 - p0 + p4 <= 299
 R111: - 2 x0,4_2 - p0 + p4 >= 0
 R112: 298 x0,4_2 - p0 + p4 <= 300
 R113: - 8 x0,4_8 - p0 + p4 >= 0
 R114: 298 x0,4_8 - p0 + p4 <= 306
 R115: - 10 x0,4_10 - p0 + p4 >= 0
 R116: 298 x0,4_10 - p0 + p4 <= 308
 R117: - 13 x0,4_13 - p0 + p4 >= 0
 R118: 298 x0,4_13 - p0 + p4 <= 311
 R119: - 21 x0,4_21 - p0 + p4 >= 0
 R120: 298 x0,4_21 - p0 + p4 <= 319
 R121: - 23 x0,4_23 - p0 + p4 >= 0
 R122: 298 x0,4_23 - p0 + p4 <= 321
 R123: - 26 x0,4_26 - p0 + p4 >= 0
 R124: 298 x0,4_26 - p0 + p4 <= 324
 R125: - 27 x0,4_27 - p0 + p4 >= 0
 R126: 298 x0,4_27 - p0 + p4 <= 325
 R127: - 37 x0,4_37 - p0 + p4 >= 0
 R128: 298 x0,4_37 - p0 + p4 <= 335
 R129: - 40 x0,4_40 - p0 + p4 >= 0
 R130: 298 x0,4_40 - p0 + p4 <= 338
 R131: - 50 x0,4_50 - p0 + p4 >= 0
 R132: 298 x0,4_50 - p0 + p4 <= 348
 R133: p0 - p5 <= -1
 R134: - x0,5_1 - p0 + p5 >= 0
 R135: 298 x0,5_1 - p0 + p5 <= 299
 R136: - 2 x0,5_2 - p0 + p5 >= 0
 R137: 298 x0,5_2 - p0 + p5 <= 300
 R138: - 8 x0,5_8 - p0 + p5 >= 0
 R139: 298 x0,5_8 - p0 + p5 <= 306
 R140: - 10 x0,5_10 - p0 + p5 >= 0
 R141: 298 x0,5_10 - p0 + p5 <= 308
 R142: - 13 x0,5_13 - p0 + p5 >= 0
 R143: 298 x0,5_13 - p0 + p5 <= 311
 R144: - 21 x0,5_21 - p0 + p5 >= 0
 R145: 298 x0,5_21 - p0 + p5 <= 319
 R146: - 23 x0,5_23 - p0 + p5 >= 0
 R147: 298 x0,5_23 - p0 + p5 <= 321
 R148: - 26 x0,5_26 - p0 + p5 >= 0
 R149: 298 x0,5_26 - p0 + p5 <= 324
 R150: - 27 x0,5_27 - p0 + p5 >= 0
 R151: 298 x0,5_27 - p0 + p5 <= 325
 R152: - 37 x0,5_37 - p0 + p5 >= 0
 R153: 298 x0,5_37 - p0 + p5 <= 335
 R154: - 40 x0,5_40 - p0 + p5 >= 0
 R155: 298 x0,5_40 - p0 + p5 <= 338
 R156: - 50 x0,5_50 - p0 + p5 >= 0
 R157: 298 x0,5_50 - p0 + p5 <= 348
 R158: p0 - p6 <= -1
 R159: - x0,6_1 - p0 + p6 >= 0
 R160: 298 x0,6_1 - p0 + p6 <= 299
 R161: - 2 x0,6_2 - p0 + p6 >= 0
 R162: 298 x0,6_2 - p0 + p6 <= 300
 R163: - 8 x0,6_8 - p0 + p6 >= 0
 R164: 298 x0,6_8 - p0 + p6 <= 306
 R165: - 10 x0,6_10 - p0 + p6 >= 0
 R166: 298 x0,6_10 - p0 + p6 <= 308
 R167: - 13 x0,6_13 - p0 + p6 >= 0
 R168: 298 x0,6_13 - p0 + p6 <= 311
 R169: - 21 x0,6_21 - p0 + p6 >= 0
 R170: 298 x0,6_21 - p0 + p6 <= 319
 R171: - 23 x0,6_23 - p0 + p6 >= 0
 R172: 298 x0,6_23 - p0 + p6 <= 321
 R173: - 26 x0,6_26 - p0 + p6 >= 0
 R174: 298 x0,6_26 - p0 + p6 <= 324
 R175: - 27 x0,6_27 - p0 + p6 >= 0
 R176: 298 x0,6_27 - p0 + p6 <= 325
 R177: - 37 x0,6_37 - p0 + p6 >= 0
 R178: 298 x0,6_37 - p0 + p6 <= 335
 R179: - 40 x0,6_40 - p0 + p6 >= 0
 R180: 298 x0,6_40 - p0 + p6 <= 338
 R181: - 50 x0,6_50 - p0 + p6 >= 0
 R182: 298 x0,6_50 - p0 + p6 <= 348
 R183: p1 - p2 <= -1
 R184: - x1,2_1 - p1 + p2 >= 0
 R185: 298 x1,2_1 - p1 + p2 <= 299
 R186: - 2 x1,2_2 - p1 + p2 >= 0
 R187: 298 x1,2_2 - p1 + p2 <= 300
 R188: - 8 x1,2_8 - p1 + p2 >= 0
 R189: 298 x1,2_8 - p1 + p2 <= 306
 R190: - 10 x1,2_10 - p1 + p2 >= 0
 R191: 298 x1,2_10 - p1 + p2 <= 308
 R192: - 13 x1,2_13 - p1 + p2 >= 0
 R193: 298 x1,2_13 - p1 + p2 <= 311
 R194: - 21 x1,2_21 - p1 + p2 >= 0
 R195: 298 x1,2_21 - p1 + p2 <= 319
 R196: - 23 x1,2_23 - p1 + p2 >= 0
 R197: 298 x1,2_23 - p1 + p2 <= 321
 R198: - 26 x1,2_26 - p1 + p2 >= 0
 R199: 298 x1,2_26 - p1 + p2 <= 324
 R200: - 27 x1,2_27 - p1 + p2 >= 0
 R201: 298 x1,2_27 - p1 + p2 <= 325
 R202: - 37 x1,2_37 - p1 + p2 >= 0
 R203: 298 x1,2_37 - p1 + p2 <= 335
 R204: - 40 x1,2_40 - p1 + p2 >= 0
 R205: 298 x1,2_40 - p1 + p2 <= 338
 R206: - 50 x1,2_50 - p1 + p2 >= 0
 R207: 298 x1,2_50 - p1 + p2 <= 348
 R208: p1 - p3 <= -1
 R209: - x1,3_1 - p1 + p3 >= 0
 R210: 298 x1,3_1 - p1 + p3 <= 299
 R211: - 2 x1,3_2 - p1 + p3 >= 0
 R212: 298 x1,3_2 - p1 + p3 <= 300
 R213: - 8 x1,3_8 - p1 + p3 >= 0
 R214: 298 x1,3_8 - p1 + p3 <= 306
 R215: - 10 x1,3_10 - p1 + p3 >= 0
 R216: 298 x1,3_10 - p1 + p3 <= 308
 R217: - 13 x1,3_13 - p1 + p3 >= 0
 R218: 298 x1,3_13 - p1 + p3 <= 311
 R219: - 21 x1,3_21 - p1 + p3 >= 0
 R220: 298 x1,3_21 - p1 + p3 <= 319
 R221: - 23 x1,3_23 - p1 + p3 >= 0
 R222: 298 x1,3_23 - p1 + p3 <= 321
 R223: - 26 x1,3_26 - p1 + p3 >= 0
 R224: 298 x1,3_26 - p1 + p3 <= 324
 R225: - 27 x1,3_27 - p1 + p3 >= 0
 R226: 298 x1,3_27 - p1 + p3 <= 325
 R227: - 37 x1,3_37 - p1 + p3 >= 0
 R228: 298 x1,3_37 - p1 + p3 <= 335
 R229: - 40 x1,3_40 - p1 + p3 >= 0
 R230: 298 x1,3_40 - p1 + p3 <= 338
 R231: - 50 x1,3_50 - p1 + p3 >= 0
 R232: 298 x1,3_50 - p1 + p3 <= 348
 R233: p1 - p4 <= -1
 R234: - x1,4_1 - p1 + p4 >= 0
 R235: 298 x1,4_1 - p1 + p4 <= 299
 R236: - 2 x1,4_2 - p1 + p4 >= 0
 R237: 298 x1,4_2 - p1 + p4 <= 300
 R238: - 8 x1,4_8 - p1 + p4 >= 0
 R239: 298 x1,4_8 - p1 + p4 <= 306
 R240: - 10 x1,4_10 - p1 + p4 >= 0
 R241: 298 x1,4_10 - p1 + p4 <= 308
 R242: - 13 x1,4_13 - p1 + p4 >= 0
 R243: 298 x1,4_13 - p1 + p4 <= 311
 R244: - 21 x1,4_21 - p1 + p4 >= 0
 R245: 298 x1,4_21 - p1 + p4 <= 319
 R246: - 23 x1,4_23 - p1 + p4 >= 0
 R247: 298 x1,4_23 - p1 + p4 <= 321
 R248: - 26 x1,4_26 - p1 + p4 >= 0
 R249: 298 x1,4_26 - p1 + p4 <= 324
 R250: - 27 x1,4_27 - p1 + p4 >= 0
 R251: 298 x1,4_27 - p1 + p4 <= 325
 R252: - 37 x1,4_37 - p1 + p4 >= 0
 R253: 298 x1,4_37 - p1 + p4 <= 335
 R254: - 40 x1,4_40 - p1 + p4 >= 0
 R255: 298 x1,4_40 - p1 + p4 <= 338
 R256: - 50 x1,4_50 - p1 + p4 >= 0
 R257: 298 x1,4_50 - p1 + p4 <= 348
 R258: p1 - p5 <= -1
 R259: - x1,5_1 - p1 + p5 >= 0
 R260: 298 x1,5_1 - p1 + p5 <= 299
 R261: - 2 x1,5_2 - p1 + p5 >= 0
 R262: 298 x1,5_2 - p1 + p5 <= 300
 R263: - 8 x1,5_8 - p1 + p5 >= 0
 R264: 298 x1,5_8 - p1 + p5 <= 306
 R265: - 10 x1,5_10 - p1 + p5 >= 0
 R266: 298 x1,5_10 - p1 + p5 <= 308
 R267: - 13 x1,5_13 - p1 + p5 >= 0
 R268: 298 x1,5_13 - p1 + p5 <= 311
 R269: - 21 x1,5_21 - p1 + p5 >= 0
 R270: 298 x1,5_21 - p1 + p5 <= 319
 R271: - 23 x1,5_23 - p1 + p5 >= 0
 R272: 298 x1,5_23 - p1 + p5 <= 321
 R273: - 26 x1,5_26 - p1 + p5 >= 0
 R274: 298 x1,5_26 - p1 + p5 <= 324
 R275: - 27 x1,5_27 - p1 + p5 >= 0
 R276: 298 x1,5_27 - p1 + p5 <= 325
 R277: - 37 x1,5_37 - p1 + p5 >= 0
 R278: 298 x1,5_37 - p1 + p5 <= 335
 R279: - 40 x1,5_40 - p1 + p5 >= 0
 R280: 298 x1,5_40 - p1 + p5 <= 338
 R281: - 50 x1,5_50 - p1 + p5 >= 0
 R282: 298 x1,5_50 - p1 + p5 <= 348
 R283: p1 - p6 <= -1
 R284: - x1,6_1 - p1 + p6 >= 0
 R285: 298 x1,6_1 - p1 + p6 <= 299
 R286: - 2 x1,6_2 - p1 + p6 >= 0
 R287: 298 x1,6_2 - p1 + p6 <= 300
 R288: - 8 x1,6_8 - p1 + p6 >= 0
 R289: 298 x1,6_8 - p1 + p6 <= 306
 R290: - 10 x1,6_10 - p1 + p6 >= 0
 R291: 298 x1,6_10 - p1 + p6 <= 308
 R292: - 13 x1,6_13 - p1 + p6 >= 0
 R293: 298 x1,6_13 - p1 + p6 <= 311
 R294: - 21 x1,6_21 - p1 + p6 >= 0
 R295: 298 x1,6_21 - p1 + p6 <= 319
 R296: - 23 x1,6_23 - p1 + p6 >= 0
 R297: 298 x1,6_23 - p1 + p6 <= 321
 R298: - 26 x1,6_26 - p1 + p6 >= 0
 R299: 298 x1,6_26 - p1 + p6 <= 324
 R300: - 27 x1,6_27 - p1 + p6 >= 0
 R301: 298 x1,6_27 - p1 + p6 <= 325
 R302: - 37 x1,6_37 - p1 + p6 >= 0
 R303: 298 x1,6_37 - p1 + p6 <= 335
 R304: - 40 x1,6_40 - p1 + p6 >= 0
 R305: 298 x1,6_40 - p1 + p6 <= 338
 R306: - 50 x1,6_50 - p1 + p6 >= 0
 R307: 298 x1,6_50 - p1 + p6 <= 348
 R308: p2 - p3 <= -1
 R309: - x2,3_1 - p2 + p3 >= 0
 R310: 298 x2,3_1 - p2 + p3 <= 299
 R311: - 2 x2,3_2 - p2 + p3 >= 0
 R312: 298 x2,3_2 - p2 + p3 <= 300
 R313: - 8 x2,3_8 - p2 + p3 >= 0
 R314: 298 x2,3_8 - p2 + p3 <= 306
 R315: - 10 x2,3_10 - p2 + p3 >= 0
 R316: 298 x2,3_10 - p2 + p3 <= 308
 R317: - 13 x2,3_13 - p2 + p3 >= 0
 R318: 298 x2,3_13 - p2 + p3 <= 311
 R319: - 21 x2,3_21 - p2 + p3 >= 0
 R320: 298 x2,3_21 - p2 + p3 <= 319
 R321: - 23 x2,3_23 - p2 + p3 >= 0
 R322: 298 x2,3_23 - p2 + p3 <= 321
 R323: - 26 x2,3_26 - p2 + p3 >= 0
 R324: 298 x2,3_26 - p2 + p3 <= 324
 R325: - 27 x2,3_27 - p2 + p3 >= 0
 R326: 298 x2,3_27 - p2 + p3 <= 325
 R327: - 37 x2,3_37 - p2 + p3 >= 0
 R328: 298 x2,3_37 - p2 + p3 <= 335
 R329: - 40 x2,3_40 - p2 + p3 >= 0
 R330: 298 x2,3_40 - p2 + p3 <= 338
 R331: - 50 x2,3_50 - p2 + p3 >= 0
 R332: 298 x2,3_50 - p2 + p3 <= 348
 R333: p2 - p4 <= -1
 R334: - x2,4_1 - p2 + p4 >= 0
 R335: 298 x2,4_1 - p2 + p4 <= 299
 R336: - 2 x2,4_2 - p2 + p4 >= 0
 R337: 298 x2,4_2 - p2 + p4 <= 300
 R338: - 8 x2,4_8 - p2 + p4 >= 0
 R339: 298 x2,4_8 - p2 + p4 <= 306
 R340: - 10 x2,4_10 - p2 + p4 >= 0
 R341: 298 x2,4_10 - p2 + p4 <= 308
 R342: - 13 x2,4_13 - p2 + p4 >= 0
 R343: 298 x2,4_13 - p2 + p4 <= 311
 R344: - 21 x2,4_21 - p2 + p4 >= 0
 R345: 298 x2,4_21 - p2 + p4 <= 319
 R346: - 23 x2,4_23 - p2 + p4 >= 0
 R347: 298 x2,4_23 - p2 + p4 <= 321
 R348: - 26 x2,4_26 - p2 + p4 >= 0
 R349: 298 x2,4_26 - p2 + p4 <= 324
 R350: - 27 x2,4_27 - p2 + p4 >= 0
 R351: 298 x2,4_27 - p2 + p4 <= 325
 R352: - 37 x2,4_37 - p2 + p4 >= 0
 R353: 298 x2,4_37 - p2 + p4 <= 335
 R354: - 40 x2,4_40 - p2 + p4 >= 0
 R355: 298 x2,4_40 - p2 + p4 <= 338
 R356: - 50 x2,4_50 - p2 + p4 >= 0
 R357: 298 x2,4_50 - p2 + p4 <= 348
 R358: p2 - p5 <= -1
 R359: - x2,5_1 - p2 + p5 >= 0
 R360: 298 x2,5_1 - p2 + p5 <= 299
 R361: - 2 x2,5_2 - p2 + p5 >= 0
 R362: 298 x2,5_2 - p2 + p5 <= 300
 R363: - 8 x2,5_8 - p2 + p5 >= 0
 R364: 298 x2,5_8 - p2 + p5 <= 306
 R365: - 10 x2,5_10 - p2 + p5 >= 0
 R366: 298 x2,5_10 - p2 + p5 <= 308
 R367: - 13 x2,5_13 - p2 + p5 >= 0
 R368: 298 x2,5_13 - p2 + p5 <= 311
 R369: - 21 x2,5_21 - p2 + p5 >= 0
 R370: 298 x2,5_21 - p2 + p5 <= 319
 R371: - 23 x2,5_23 - p2 + p5 >= 0
 R372: 298 x2,5_23 - p2 + p5 <= 321
 R373: - 26 x2,5_26 - p2 + p5 >= 0
 R374: 298 x2,5_26 - p2 + p5 <= 324
 R375: - 27 x2,5_27 - p2 + p5 >= 0
 R376: 298 x2,5_27 - p2 + p5 <= 325
 R377: - 37 x2,5_37 - p2 + p5 >= 0
 R378: 298 x2,5_37 - p2 + p5 <= 335
 R379: - 40 x2,5_40 - p2 + p5 >= 0
 R380: 298 x2,5_40 - p2 + p5 <= 338
 R381: - 50 x2,5_50 - p2 + p5 >= 0
 R382: 298 x2,5_50 - p2 + p5 <= 348
 R383: p2 - p6 <= -1
 R384: - x2,6_1 - p2 + p6 >= 0
 R385: 298 x2,6_1 - p2 + p6 <= 299
 R386: - 2 x2,6_2 - p2 + p6 >= 0
 R387: 298 x2,6_2 - p2 + p6 <= 300
 R388: - 8 x2,6_8 - p2 + p6 >= 0
 R389: 298 x2,6_8 - p2 + p6 <= 306
 R390: - 10 x2,6_10 - p2 + p6 >= 0
 R391: 298 x2,6_10 - p2 + p6 <= 308
 R392: - 13 x2,6_13 - p2 + p6 >= 0
 R393: 298 x2,6_13 - p2 + p6 <= 311
 R394: - 21 x2,6_21 - p2 + p6 >= 0
 R395: 298 x2,6_21 - p2 + p6 <= 319
 R396: - 23 x2,6_23 - p2 + p6 >= 0
 R397: 298 x2,6_23 - p2 + p6 <= 321
 R398: - 26 x2,6_26 - p2 + p6 >= 0
 R399: 298 x2,6_26 - p2 + p6 <= 324
 R400: - 27 x2,6_27 - p2 + p6 >= 0
 R401: 298 x2,6_27 - p2 + p6 <= 325
 R402: - 37 x2,6_37 - p2 + p6 >= 0
 R403: 298 x2,6_37 - p2 + p6 <= 335
 R404: - 40 x2,6_40 - p2 + p6 >= 0
 R405: 298 x2,6_40 - p2 + p6 <= 338
 R406: - 50 x2,6_50 - p2 + p6 >= 0
 R407: 298 x2,6_50 - p2 + p6 <= 348
 R408: p3 - p4 <= -1
 R409: - x3,4_1 - p3 + p4 >= 0
 R410: 298 x3,4_1 - p3 + p4 <= 299
 R411: - 2 x3,4_2 - p3 + p4 >= 0
 R412: 298 x3,4_2 - p3 + p4 <= 300
 R413: - 8 x3,4_8 - p3 + p4 >= 0
 R414: 298 x3,4_8 - p3 + p4 <= 306
 R415: - 10 x3,4_10 - p3 + p4 >= 0
 R416: 298 x3,4_10 - p3 + p4 <= 308
 R417: - 13 x3,4_13 - p3 + p4 >= 0
 R418: 298 x3,4_13 - p3 + p4 <= 311
 R419: - 21 x3,4_21 - p3 + p4 >= 0
 R420: 298 x3,4_21 - p3 + p4 <= 319
 R421: - 23 x3,4_23 - p3 + p4 >= 0
 R422: 298 x3,4_23 - p3 + p4 <= 321
 R423: - 26 x3,4_26 - p3 + p4 >= 0
 R424: 298 x3,4_26 - p3 + p4 <= 324
 R425: - 27 x3,4_27 - p3 + p4 >= 0
 R426: 298 x3,4_27 - p3 + p4 <= 325
 R427: - 37 x3,4_37 - p3 + p4 >= 0
 R428: 298 x3,4_37 - p3 + p4 <= 335
 R429: - 40 x3,4_40 - p3 + p4 >= 0
 R430: 298 x3,4_40 - p3 + p4 <= 338
 R431: - 50 x3,4_50 - p3 + p4 >= 0
 R432: 298 x3,4_50 - p3 + p4 <= 348
 R433: p3 - p5 <= -1
 R434: - x3,5_1 - p3 + p5 >= 0
 R435: 298 x3,5_1 - p3 + p5 <= 299
 R436: - 2 x3,5_2 - p3 + p5 >= 0
 R437: 298 x3,5_2 - p3 + p5 <= 300
 R438: - 8 x3,5_8 - p3 + p5 >= 0
 R439: 298 x3,5_8 - p3 + p5 <= 306
 R440: - 10 x3,5_10 - p3 + p5 >= 0
 R441: 298 x3,5_10 - p3 + p5 <= 308
 R442: - 13 x3,5_13 - p3 + p5 >= 0
 R443: 298 x3,5_13 - p3 + p5 <= 311
 R444: - 21 x3,5_21 - p3 + p5 >= 0
 R445: 298 x3,5_21 - p3 + p5 <= 319
 R446: - 23 x3,5_23 - p3 + p5 >= 0
 R447: 298 x3,5_23 - p3 + p5 <= 321
 R448: - 26 x3,5_26 - p3 + p5 >= 0
 R449: 298 x3,5_26 - p3 + p5 <= 324
 R450: - 27 x3,5_27 - p3 + p5 >= 0
 R451: 298 x3,5_27 - p3 + p5 <= 325
 R452: - 37 x3,5_37 - p3 + p5 >= 0
 R453: 298 x3,5_37 - p3 + p5 <= 335
 R454: - 40 x3,5_40 - p3 + p5 >= 0
 R455: 298 x3,5_40 - p3 + p5 <= 338
 R456: - 50 x3,5_50 - p3 + p5 >= 0
 R457: 298 x3,5_50 - p3 + p5 <= 348
 R458: p3 - p6 <= -1
 R459: - x3,6_1 - p3 + p6 >= 0
 R460: 298 x3,6_1 - p3 + p6 <= 299
 R461: - 2 x3,6_2 - p3 + p6 >= 0
 R462: 298 x3,6_2 - p3 + p6 <= 300
 R463: - 8 x3,6_8 - p3 + p6 >= 0
 R464: 298 x3,6_8 - p3 + p6 <= 306
 R465: - 10 x3,6_10 - p3 + p6 >= 0
 R466: 298 x3,6_10 - p3 + p6 <= 308
 R467: - 13 x3,6_13 - p3 + p6 >= 0
 R468: 298 x3,6_13 - p3 + p6 <= 311
 R469: - 21 x3,6_21 - p3 + p6 >= 0
 R470: 298 x3,6_21 - p3 + p6 <= 319
 R471: - 23 x3,6_23 - p3 + p6 >= 0
 R472: 298 x3,6_23 - p3 + p6 <= 321
 R473: - 26 x3,6_26 - p3 + p6 >= 0
 R474: 298 x3,6_26 - p3 + p6 <= 324
 R475: - 27 x3,6_27 - p3 + p6 >= 0
 R476: 298 x3,6_27 - p3 + p6 <= 325
 R477: - 37 x3,6_37 - p3 + p6 >= 0
 R478: 298 x3,6_37 - p3 + p6 <= 335
 R479: - 40 x3,6_40 - p3 + p6 >= 0
 R480: 298 x3,6_40 - p3 + p6 <= 338
 R481: - 50 x3,6_50 - p3 + p6 >= 0
 R482: 298 x3,6_50 - p3 + p6 <= 348
 R483: p4 - p5 <= -1
 R484: - x4,5_1 - p4 + p5 >= 0
 R485: 298 x4,5_1 - p4 + p5 <= 299
 R486: - 2 x4,5_2 - p4 + p5 >= 0
 R487: 298 x4,5_2 - p4 + p5 <= 300
 R488: - 8 x4,5_8 - p4 + p5 >= 0
 R489: 298 x4,5_8 - p4 + p5 <= 306
 R490: - 10 x4,5_10 - p4 + p5 >= 0
 R491: 298 x4,5_10 - p4 + p5 <= 308
 R492: - 13 x4,5_13 - p4 + p5 >= 0
 R493: 298 x4,5_13 - p4 + p5 <= 311
 R494: - 21 x4,5_21 - p4 + p5 >= 0
 R495: 298 x4,5_21 - p4 + p5 <= 319
 R496: - 23 x4,5_23 - p4 + p5 >= 0
 R497: 298 x4,5_23 - p4 + p5 <= 321
 R498: - 26 x4,5_26 - p4 + p5 >= 0
 R499: 298 x4,5_26 - p4 + p5 <= 324
 R500: - 27 x4,5_27 - p4 + p5 >= 0
 R501: 298 x4,5_27 - p4 + p5 <= 325
 R502: - 37 x4,5_37 - p4 + p5 >= 0
 R503: 298 x4,5_37 - p4 + p5 <= 335
 R504: - 40 x4,5_40 - p4 + p5 >= 0
 R505: 298 x4,5_40 - p4 + p5 <= 338
 R506: - 50 x4,5_50 - p4 + p5 >= 0
 R507: 298 x4,5_50 - p4 + p5 <= 348
 R508: p4 - p6 <= -1
 R509: - x4,6_1 - p4 + p6 >= 0
 R510: 298 x4,6_1 - p4 + p6 <= 299
 R511: - 2 x4,6_2 - p4 + p6 >= 0
 R512: 298 x4,6_2 - p4 + p6 <= 300
 R513: - 8 x4,6_8 - p4 + p6 >= 0
 R514: 298 x4,6_8 - p4 + p6 <= 306
 R515: - 10 x4,6_10 - p4 + p6 >= 0
 R516: 298 x4,6_10 - p4 + p6 <= 308
 R517: - 13 x4,6_13 - p4 + p6 >= 0
 R518: 298 x4,6_13 - p4 + p6 <= 311
 R519: - 21 x4,6_21 - p4 + p6 >= 0
 R520: 298 x4,6_21 - p4 + p6 <= 319
 R521: - 23 x4,6_23 - p4 + p6 >= 0
 R522: 298 x4,6_23 - p4 + p6 <= 321
 R523: - 26 x4,6_26 - p4 + p6 >= 0
 R524: 298 x4,6_26 - p4 + p6 <= 324
 R525: - 27 x4,6_27 - p4 + p6 >= 0
 R526: 298 x4,6_27 - p4 + p6 <= 325
 R527: - 37 x4,6_37 - p4 + p6 >= 0
 R528: 298 x4,6_37 - p4 + p6 <= 335
 R529: - 40 x4,6_40 - p4 + p6 >= 0
 R530: 298 x4,6_40 - p4 + p6 <= 338
 R531: - 50 x4,6_50 - p4 + p6 >= 0
 R532: 298 x4,6_50 - p4 + p6 <= 348
 R533: p5 - p6 <= -1
 R534: - x5,6_1 - p5 + p6 >= 0
 R535: 298 x5,6_1 - p5 + p6 <= 299
 R536: - 2 x5,6_2 - p5 + p6 >= 0
 R537: 298 x5,6_2 - p5 + p6 <= 300
 R538: - 8 x5,6_8 - p5 + p6 >= 0
 R539: 298 x5,6_8 - p5 + p6 <= 306
 R540: - 10 x5,6_10 - p5 + p6 >= 0
 R541: 298 x5,6_10 - p5 + p6 <= 308
 R542: - 13 x5,6_13 - p5 + p6 >= 0
 R543: 298 x5,6_13 - p5 + p6 <= 311
 R544: - 21 x5,6_21 - p5 + p6 >= 0
 R545: 298 x5,6_21 - p5 + p6 <= 319
 R546: - 23 x5,6_23 - p5 + p6 >= 0
 R547: 298 x5,6_23 - p5 + p6 <= 321
 R548: - 26 x5,6_26 - p5 + p6 >= 0
 R549: 298 x5,6_26 - p5 + p6 <= 324
 R550: - 27 x5,6_27 - p5 + p6 >= 0
 R551: 298 x5,6_27 - p5 + p6 <= 325
 R552: - 37 x5,6_37 - p5 + p6 >= 0
 R553: 298 x5,6_37 - p5 + p6 <= 335
 R554: - 40 x5,6_40 - p5 + p6 >= 0
 R555: 298 x5,6_40 - p5 + p6 <= 338
 R556: - 50 x5,6_50 - p5 + p6 >= 0
 R557: 298 x5,6_50 - p5 + p6 <= 348
Bounds
Binaries
 x0,1_1 x0,1_2 x0,1_8 x0,1_10 x0,1_13 x0,1_21 x0,1_23 x0,1_26 x0,1_27
 x0,1_37 x0,1_40 x0,1_50 x0,2_1 x0,2_2 x0,2_8 x0,2_10 x0,2_13 x0,2_21
 x0,2_23 x0,2_26 x0,2_27 x0,2_37 x0,2_40 x0,2_50 x0,3_1 x0,3_2 x0,3_8
 x0,3_10 x0,3_13 x0,3_21 x0,3_23 x0,3_26 x0,3_27 x0,3_37 x0,3_40 x0,3_50
 x0,4_1 x0,4_2 x0,4_8 x0,4_10 x0,4_13 x0,4_21 x0,4_23 x0,4_26 x0,4_27
 x0,4_37 x0,4_40 x0,4_50 x0,5_1 x0,5_2 x0,5_8 x0,5_10 x0,5_13 x0,5_21
 x0,5_23 x0,5_26 x0,5_27 x0,5_37 x0,5_40 x0,5_50 x0,6_1 x0,6_2 x0,6_8
 x0,6_10 x0,6_13 x0,6_21 x0,6_23 x0,6_26 x0,6_27 x0,6_37 x0,6_40 x0,6_50
 x1,2_1 x1,2_2 x1,2_8 x1,2_10 x1,2_13 x1,2_21 x1,2_23 x1,2_26 x1,2_27
 x1,2_37 x1,2_40 x1,2_50 x1,3_1 x1,3_2 x1,3_8 x1,3_10 x1,3_13 x1,3_21
 x1,3_23 x1,3_26 x1,3_27 x1,3_37 x1,3_40 x1,3_50 x1,4_1 x1,4_2 x1,4_8
 x1,4_10 x1,4_13 x1,4_21 x1,4_23 x1,4_26 x1,4_27 x1,4_37 x1,4_40 x1,4_50
 x1,5_1 x1,5_2 x1,5_8 x1,5_10 x1,5_13 x1,5_21 x1,5_23 x1,5_26 x1,5_27
 x1,5_37 x1,5_40 x1,5_50 x1,6_1 x1,6_2 x1,6_8 x1,6_10 x1,6_13 x1,6_21
 x1,6_23 x1,6_26 x1,6_27 x1,6_37 x1,6_40 x1,6_50 x2,3_1 x2,3_2 x2,3_8
 x2,3_10 x2,3_13 x2,3_21 x2,3_23 x2,3_26 x2,3_27 x2,3_37 x2,3_40 x2,3_50
 x2,4_1 x2,4_2 x2,4_8 x2,4_10 x2,4_13 x2,4_21 x2,4_23 x2,4_26 x2,4_27
 x2,4_37 x2,4_40 x2,4_50 x2,5_1 x2,5_2 x2,5_8 x2,5_10 x2,5_13 x2,5_21
 x2,5_23 x2,5_26 x2,5_27 x2,5_37 x2,5_40 x2,5_50 x2,6_1 x2,6_2 x2,6_8
 x2,6_10 x2,6_13 x2,6_21 x2,6_23 x2,6_26 x2,6_27 x2,6_37 x2,6_40 x2,6_50
 x3,4_1 x3,4_2 x3,4_8 x3,4_10 x3,4_13 x3,4_21 x3,4_23 x3,4_26 x3,4_27
 x3,4_37 x3,4_40 x3,4_50 x3,5_1 x3,5_2 x3,5_8 x3,5_10 x3,5_13 x3,5_21
 x3,5_23 x3,5_26 x3,5_27 x3,5_37 x3,5_40 x3,5_50 x3,6_1 x3,6_2 x3,6_8
 x3,6_10 x3,6_13 x3,6_21 x3,6_23 x3,6_26 x3,6_27 x3,6_37 x3,6_40 x3,6_50
 x4,5_1 x4,5_2 x4,5_8 x4,5_10 x4,5_13 x4,5_21 x4,5_23 x4,5_26 x4,5_27
 x4,5_37 x4,5_40 x4,5_50 x4,6_1 x4,6_2 x4,6_8 x4,6_10 x4,6_13 x4,6_21
 x4,6_23 x4,6_26 x4,6_27 x4,6_37 x4,6_40 x4,6_50 x5,6_1 x5,6_2 x5,6_8
 x5,6_10 x5,6_13 x5,6_21 x5,6_23 x5,6_26 x5,6_27 x5,6_37 x5,6_40 x5,6_50
Generals
 p0 p1 p2 p3 p4 p5 p6
End
