logs/miss/max/miss-07-15-2.sol
# Objective value = 14
x0,1_1 1
x0,1_2 0
x0,1_8 0
x0,1_10 0
x0,1_13 0
x0,1_21 0
x0,1_23 0
x0,1_26 0
x0,1_27 0
x0,1_37 0
x0,1_40 0
x0,1_50 0
x0,2_1 0
x0,2_2 0
x0,2_8 0
x0,2_10 0
x0,2_13 1
x0,2_21 0
x0,2_23 0
x0,2_26 0
x0,2_27 0
x0,2_37 0
x0,2_40 0
x0,2_50 0
x0,3_1 0
x0,3_2 0
x0,3_8 0
x0,3_10 0
x0,3_13 0
x0,3_21 0
x0,3_23 0
x0,3_26 0
x0,3_27 1
x0,3_37 0
x0,3_40 0
x0,3_50 0
x0,4_1 0
x0,4_2 0
x0,4_8 0
x0,4_10 0
x0,4_13 0
x0,4_21 0
x0,4_23 0
x0,4_26 0
x0,4_27 0
x0,4_37 0
x0,4_40 1
x0,4_50 0
x0,5_1 0
x0,5_2 0
x0,5_8 0
x0,5_10 0
x0,5_13 0
x0,5_21 0
x0,5_23 0
x0,5_26 0
x0,5_27 0
x0,5_37 0
x0,5_40 0
x0,5_50 0
x0,6_1 0
x0,6_2 0
x0,6_8 0
x0,6_10 0
x0,6_13 0
x0,6_21 0
x0,6_23 0
x0,6_26 0
x0,6_27 0
x0,6_37 0
x0,6_40 0
x0,6_50 1
x1,2_1 0
x1,2_2 0
x1,2_8 0
x1,2_10 0
x1,2_13 0
x1,2_21 0
x1,2_23 0
x1,2_26 0
x1,2_27 0
x1,2_37 0
x1,2_40 0
x1,2_50 0
x1,3_1 0
x1,3_2 0
x1,3_8 0
x1,3_10 0
x1,3_13 0
x1,3_21 0
x1,3_23 0
x1,3_26 1
x1,3_27 0
x1,3_37 0
x1,3_40 0
x1,3_50 0
x1,4_1 0
x1,4_2 0
x1,4_8 0
x1,4_10 0
x1,4_13 0
x1,4_21 0
x1,4_23 0
x1,4_26 0
x1,4_27 0
x1,4_37 0
x1,4_40 0
x1,4_50 0
x1,5_1 0
x1,5_2 0
x1,5_8 0
x1,5_10 0
x1,5_13 0
x1,5_21 0
x1,5_23 0
x1,5_26 0
x1,5_27 0
x1,5_37 0
x1,5_40 0
x1,5_50 0
x1,6_1 0
x1,6_2 0
x1,6_8 0
x1,6_10 0
x1,6_13 0
x1,6_21 0
x1,6_23 0
x1,6_26 0
x1,6_27 0
x1,6_37 0
x1,6_40 0
x1,6_50 0
x2,3_1 0
x2,3_2 0
x2,3_8 0
x2,3_10 0
x2,3_13 0
x2,3_21 0
x2,3_23 0
x2,3_26 0
x2,3_27 0
x2,3_37 0
x2,3_40 0
x2,3_50 0
x2,4_1 0
x2,4_2 0
x2,4_8 0
x2,4_10 0
x2,4_13 0
x2,4_21 0
x2,4_23 0
x2,4_26 0
x2,4_27 1
x2,4_37 0
x2,4_40 0
x2,4_50 0
x2,5_1 0
x2,5_2 0
x2,5_8 0
x2,5_10 0
x2,5_13 0
x2,5_21 0
x2,5_23 0
x2,5_26 0
x2,5_27 0
x2,5_37 0
x2,5_40 0
x2,5_50 0
x2,6_1 0
x2,6_2 0
x2,6_8 0
x2,6_10 0
x2,6_13 0
x2,6_21 0
x2,6_23 0
x2,6_26 0
x2,6_27 0
x2,6_37 1
x2,6_40 0
x2,6_50 0
x3,4_1 0
x3,4_2 0
x3,4_8 0
x3,4_10 0
x3,4_13 1
x3,4_21 0
x3,4_23 0
x3,4_26 0
x3,4_27 0
x3,4_37 0
x3,4_40 0
x3,4_50 0
x3,5_1 0
x3,5_2 0
x3,5_8 0
x3,5_10 0
x3,5_13 0
x3,5_21 1
x3,5_23 0
x3,5_26 0
x3,5_27 0
x3,5_37 0
x3,5_40 0
x3,5_50 0
x3,6_1 0
x3,6_2 0
x3,6_8 0
x3,6_10 0
x3,6_13 0
x3,6_21 0
x3,6_23 1
x3,6_26 0
x3,6_27 0
x3,6_37 0
x3,6_40 0
x3,6_50 0
x4,5_1 0
x4,5_2 0
x4,5_8 1
x4,5_10 0
x4,5_13 0
x4,5_21 0
x4,5_23 0
x4,5_26 0
x4,5_27 0
x4,5_37 0
x4,5_40 0
x4,5_50 0
x4,6_1 0
x4,6_2 0
x4,6_8 0
x4,6_10 1
x4,6_13 0
x4,6_21 0
x4,6_23 0
x4,6_26 0
x4,6_27 0
x4,6_37 0
x4,6_40 0
x4,6_50 0
x5,6_1 0
x5,6_2 1
x5,6_8 0
x5,6_10 0
x5,6_13 0
x5,6_21 0
x5,6_23 0
x5,6_26 0
x5,6_27 0
x5,6_37 0
x5,6_40 0
x5,6_50 0
p0 1
p1 2
p2 14
p3 28
p4 41
p5 49
p6 51
